language Essence 1.3

letting bot_end be [76, 77, 104, 57, 60, 9, 33, 12, 41, 42, 52, 90, 97, 105, 95, 94, 11, 64, 20, 71, 29, 47; int(1..22)]
letting bot_start be
        [97, 15, 65, 28, 52, 70, 24, 38, 103, 48, 95, 39, 104, 25, 62, 89, 32, 82, 20, 96, 23, 101; int(1..22)]
letting bots be 22
letting buffer_col be 2
letting buffer_row be 2
letting corridor_size be 1
letting n_shelves_col be 1
letting n_shelves_row be 6
letting shelf_col_size be 2
letting shelf_row_size be 1
